data;


param d:= 100;
param r:=5;
param p:=0.200000;
param M:=1000;
param U:=
         1         1       -9.532803e-02
         2         1       -1.386292e+00
         3         1        1.089681e+00
         4         1       -6.431941e-02
         5         1       -2.168740e-01
         6         1       -1.902065e+00
         7         1       -1.342240e+00
         8         1       -1.164986e+00
         9         1        1.477731e-01
        10         1        2.081552e+00
        11         1       -1.086716e+00
        12         1        1.455810e+00
        13         1        4.667008e-01
        14         1       -8.104035e-01
        15         1        6.159852e-01
        16         1        1.947844e-01
        17         1        3.519381e-01
        18         1       -8.996137e-01
        19         1        2.978237e-01
        20         1        9.000109e-01
        21         1        1.468931e+00
        22         1        5.753296e-01
        23         1        3.475607e-01
        24         1        5.873508e-01
        25         1       -8.286551e-01
        26         1       -1.897025e-01
        27         1       -8.302900e-01
        28         1       -4.954475e-01
        29         1       -9.211921e-02
        30         1        1.117092e+00
        31         1       -6.250343e-01
        32         1        3.425885e-01
        33         1        2.402988e+00
        34         1        1.078904e+00
        35         1       -1.285400e+00
        36         1        5.723469e-01
        37         1       -1.537700e-02
        38         1       -5.633337e-01
        39         1        1.088234e+00
        40         1        6.642357e-02
        41         1       -1.858089e+00
        42         1        8.162034e-02
        43         1        6.333588e-01
        44         1       -2.117044e+00
        45         1        8.778923e-01
        46         1       -7.681166e-01
        47         1       -1.242500e+00
        48         1       -4.233527e-01
        49         1       -8.671112e-01
        50         1        1.124124e+00
        51         1       -1.899521e+00
        52         1        1.546251e+00
        53         1        3.841901e-01
        54         1       -2.749030e-01
        55         1        3.474265e-01
        56         1       -1.014187e+00
        57         1       -2.496017e+00
        58         1        4.496280e-01
        59         1        8.872071e-01
        60         1        6.008591e-01
        61         1        1.663338e+00
        62         1        2.379418e-01
        63         1       -8.289910e-01
        64         1        4.545689e-01
        65         1        1.395704e+00
        66         1        8.374955e-01
        67         1        2.471984e-01
        68         1       -5.521196e-01
        69         1        1.076745e-01
        70         1        1.171729e+00
        71         1        1.622568e-01
        72         1       -3.767103e-01
        73         1       -2.415475e-02
        74         1        1.228535e+00
        75         1        4.616969e-01
        76         1        5.498668e-01
        77         1       -2.104597e-01
        78         1        7.446193e-01
        79         1       -1.692329e-01
        80         1       -5.251137e-02
        81         1        7.219810e-01
        82         1        6.671190e-01
        83         1       -2.717050e-01
        84         1       -1.337911e+00
        85         1        4.692086e-02
        86         1       -1.988248e+00
        87         1        6.452045e-02
        88         1       -2.077124e-02
        89         1       -5.538256e-01
        90         1        2.873198e-01
        91         1        3.052827e-01
        92         1       -1.783872e+00
        93         1       -7.712962e-01
        94         1       -5.497913e-01
        95         1        7.426652e-01
        96         1        5.935379e-02
        97         1       -3.255852e-01
        98         1        5.421210e-01
        99         1        4.895668e-01
       100         1       -8.002154e-01
         1         2        1.053581e+00
         2         2       -5.983563e-01
         3         2        3.727115e-01
         4         2        1.347584e+00
         5         2        1.198886e+00
         6         2       -8.693319e-01
         7         2       -3.080252e-01
         8         2        1.280554e+00
         9         2        4.347883e-02
        10         2       -1.019345e-01
        11         2        1.791398e-01
        12         2        1.390797e+00
        13         2        1.989818e-01
        14         2       -5.378316e-01
        15         2        2.822194e-01
        16         2        3.385885e-01
        17         2       -1.937266e-01
        18         2       -2.137386e+00
        19         2        1.476273e-01
        20         2        6.953152e-01
        21         2       -1.029366e+00
        22         2       -6.841038e-01
        23         2       -5.069866e-02
        24         2       -1.617107e+00
        25         2       -1.050632e+00
        26         2       -1.219719e-01
        27         2       -1.243309e+00
        28         2        3.164338e-02
        29         2        1.619125e+00
        30         2        2.178313e+00
        31         2        8.757360e-01
        32         2        6.463223e-01
        33         2       -1.987173e-01
        34         2        1.242238e+00
        35         2        1.535116e-01
        36         2        1.075051e+00
        37         2        1.167338e+00
        38         2        2.127547e+00
        39         2        2.506548e-01
        40         2        1.237195e+00
        41         2        2.274037e+00
        42         2       -1.370235e-01
        43         2        5.103577e-01
        44         2       -5.194781e-01
        45         2       -8.979086e-01
        46         2        1.953186e+00
        47         2        4.785286e-01
        48         2       -3.990440e-01
        49         2        1.330240e+00
        50         2        6.080765e-01
        51         2        6.283715e-01
        52         2        8.430842e-02
        53         2        1.974126e+00
        54         2        6.080551e-01
        55         2        8.541582e-01
        56         2       -5.662572e-01
        57         2        1.840202e-01
        58         2        1.222451e+00
        59         2       -1.808422e-01
        60         2       -1.478797e+00
        61         2       -8.954695e-01
        62         2        1.868747e+00
        63         2       -6.562721e-01
        64         2       -3.448207e-01
        65         2        1.002861e-01
        66         2       -5.586519e-01
        67         2        8.073070e-03
        68         2       -8.736264e-01
        69         2        1.193635e+00
        70         2       -5.747224e-01
        71         2        4.782949e-01
        72         2        6.741646e-02
        73         2        2.453579e-01
        74         2       -9.674170e-01
        75         2       -7.376274e-01
        76         2        7.058274e-02
        77         2        1.000763e+00
        78         2        4.806024e-01
        79         2        2.191512e-01
        80         2       -5.959741e-01
        81         2        8.449387e-01
        82         2       -2.154185e+00
        83         2       -8.756340e-01
        84         2        2.432097e-01
        85         2        5.510157e-02
        86         2       -1.705597e+00
        87         2        1.927708e+00
        88         2       -4.927867e-01
        89         2        7.767545e-01
        90         2        4.528746e-01
        91         2       -4.167874e-01
        92         2       -9.149019e-01
        93         2       -1.446555e+00
        94         2       -1.384256e-01
        95         2        1.808394e-02
        96         2        3.045525e-01
        97         2       -1.566875e+00
        98         2       -1.695709e+00
        99         2        7.484047e-02
       100         2        1.269226e-01
         1         3        2.245294e-01
         2         3        3.008165e-01
         3         3        1.076012e+00
         4         3        1.390532e+00
         5         3       -1.986192e+00
         6         3        2.836980e-01
         7         3        4.039395e-02
         8         3       -8.785205e-01
         9         3       -1.536658e+00
        10         3       -8.940489e-01
        11         3        4.262420e-01
        12         3        6.353302e-01
        13         3        4.815625e-01
        14         3        5.662234e-01
        15         3       -1.056575e+00
        16         3        9.398469e-01
        17         3       -3.601669e-01
        18         3        8.513018e-01
        19         3       -1.254931e+00
        20         3        2.310190e-01
        21         3        6.212205e-02
        22         3       -2.256977e-01
        23         3        4.243513e-01
        24         3       -1.064277e+00
        25         3       -9.082189e-01
        26         3        1.074660e-01
        27         3       -1.246324e+00
        28         3        3.408953e-01
        29         3       -3.308151e-02
        30         3       -7.817127e-01
        31         3       -9.251182e-01
        32         3        1.804959e-01
        33         3       -1.816858e-01
        34         3        8.593706e-01
        35         3       -9.537913e-02
        36         3       -9.448336e-01
        37         3        6.897116e-01
        38         3       -6.277375e-01
        39         3        6.371534e-01
        40         3       -1.357603e-01
        41         3       -1.725730e+00
        42         3       -1.249679e+00
        43         3        1.937902e-01
        44         3       -2.268429e-01
        45         3        1.593902e-01
        46         3       -9.441998e-01
        47         3       -5.397872e-01
        48         3        5.755864e-01
        49         3        8.841914e-01
        50         3       -1.902990e-01
        51         3        1.760085e+00
        52         3        2.441338e+00
        53         3       -1.338275e+00
        54         3       -1.459847e+00
        55         3        6.596720e-01
        56         3        1.469551e+00
        57         3        7.219252e-01
        58         3        6.735133e-01
        59         3       -3.815206e-01
        60         3       -1.071972e+00
        61         3       -3.774986e-01
        62         3       -4.467337e-01
        63         3       -4.204620e-01
        64         3        5.911669e-02
        65         3       -2.787280e-01
        66         3       -6.103593e-01
        67         3       -1.104327e+00
        68         3        4.161692e-01
        69         3       -4.812862e-01
        70         3       -1.399987e+00
        71         3       -2.595487e-02
        72         3       -1.087853e+00
        73         3       -8.279188e-01
        74         3       -1.715095e-02
        75         3        2.657226e-01
        76         3       -2.240757e-01
        77         3        5.405421e-02
        78         3        1.812701e+00
        79         3       -5.110757e-01
        80         3        1.895404e-01
        81         3       -8.606240e-01
        82         3        1.444447e+00
        83         3        2.776069e-01
        84         3       -2.203436e-01
        85         3        2.480319e-01
        86         3        8.342782e-01
        87         3        2.485621e-01
        88         3        2.133845e-01
        89         3        2.145795e-02
        90         3        9.605958e-02
        91         3        4.235569e-01
        92         3        1.496975e+00
        93         3        2.051719e+00
        94         3        9.534981e-01
        95         3       -4.948648e-01
        96         3       -2.396628e+00
        97         3        1.433834e+00
        98         3        1.327127e-01
        99         3       -1.574111e+00
       100         3       -7.004544e-01
         1         4       -1.055689e+00
         2         4        1.020960e+00
         3         4       -4.599163e-01
         4         4       -2.686033e-01
         5         4        2.769828e+00
         6         4       -6.332033e-01
         7         4        1.409741e+00
         8         4       -1.806231e+00
         9         4       -7.974619e-01
        10         4        4.556009e-01
        11         4       -9.395522e-01
        12         4       -1.448921e+00
        13         4       -1.360582e+00
        14         4       -4.519432e-01
        15         4        6.856148e-01
        16         4        1.523060e-01
        17         4        2.113245e+00
        18         4        6.125211e-02
        19         4       -1.331189e+00
        20         4        2.612894e-01
        21         4       -4.343729e-01
        22         4       -9.906377e-01
        23         4        1.458265e+00
        24         4       -9.434912e-01
        25         4       -8.860677e-01
        26         4        8.351489e-01
        27         4       -9.364487e-01
        28         4       -1.258175e+00
        29         4        1.440957e+00
        30         4       -6.451555e-01
        31         4       -7.003909e-01
        32         4        2.279055e-01
        33         4        1.801788e+00
        34         4       -8.104314e-02
        35         4        1.825909e-01
        36         4        1.250100e+00
        37         4       -7.747569e-01
        38         4        1.565885e+00
        39         4        8.760611e-01
        40         4       -2.215643e-01
        41         4        3.163220e-01
        42         4        1.009751e+00
        43         4        1.064248e-01
        44         4        6.626605e-01
        45         4       -1.088605e+00
        46         4        5.022213e-01
        47         4        1.207222e+00
        48         4        5.688185e-01
        49         4       -9.996091e-02
        50         4       -7.102459e-01
        51         4       -7.061052e-01
        52         4       -7.683544e-02
        53         4        6.115295e-01
        54         4        1.082896e+00
        55         4        3.537778e-01
        56         4       -6.724737e-01
        57         4       -6.709738e-01
        58         4       -8.978098e-01
        59         4       -5.791951e-01
        60         4       -4.865089e-01
        61         4       -2.336001e-01
        62         4       -9.043588e-01
        63         4        2.364796e-01
        64         4        1.846499e+00
        65         4        2.008434e-01
        66         4       -1.246202e+00
        67         4        6.235137e-01
        68         4        3.278189e-01
        69         4        6.290754e-01
        70         4       -9.070248e-01
        71         4        5.030292e-01
        72         4        1.765917e+00
        73         4       -1.282266e+00
        74         4       -1.685134e+00
        75         4        1.034487e+00
        76         4        9.230739e-01
        77         4        1.053325e+00
        78         4       -9.929816e-02
        79         4        3.682778e-01
        80         4        2.098802e-01
        81         4       -1.883904e+00
        82         4        1.069222e-01
        83         4       -1.524417e+00
        84         4        1.285524e+00
        85         4        9.522772e-01
        86         4       -1.237951e-01
        87         4       -7.183172e-01
        88         4        8.601573e-01
        89         4       -9.020939e-01
        90         4        4.248475e-01
        91         4        1.180341e+00
        92         4       -3.496335e-01
        93         4       -5.506850e-02
        94         4        1.366989e+00
        95         4       -1.858290e+00
        96         4       -1.267422e-01
        97         4        1.805429e+00
        98         4       -4.618236e-01
        99         4       -4.470220e-01
       100         4        9.152794e-01
         1         5       -3.057675e-01
         2         5       -1.596233e+00
         3         5        5.548312e-01
         4         5       -9.985845e-02
         5         5       -1.322980e+00
         6         5       -2.080793e-01
         7         5       -1.456248e-01
         8         5        8.109449e-01
         9         5        6.398112e-01
        10         5        5.694276e-01
        11         5       -9.844970e-01
        12         5       -1.867616e+00
        13         5       -1.737557e+00
        14         5       -1.473246e+00
        15         5       -6.497328e-01
        16         5       -1.387747e+00
        17         5        9.831049e-01
        18         5       -3.120609e-01
        19         5       -9.506404e-01
        20         5        1.381231e+00
        21         5        1.464080e+00
        22         5        1.291562e-01
        23         5        4.183151e-01
        24         5        1.777615e+00
        25         5       -2.108383e-01
        26         5        2.671263e+00
        27         5       -6.771121e-01
        28         5        2.087032e+00
        29         5        1.783684e+00
        30         5        7.386984e-01
        31         5        1.034483e+00
        32         5       -3.406684e+00
        33         5       -9.721482e-01
        34         5        1.914154e+00
        35         5        7.893138e-01
        36         5       -7.801620e-01
        37         5        7.747419e-01
        38         5       -1.629311e+00
        39         5       -3.495494e-01
        40         5        1.035287e+00
        41         5        6.892685e-01
        42         5        1.051075e+00
        43         5        9.759018e-01
        44         5        4.097689e-01
        45         5       -3.477879e-01
        46         5       -1.111460e+00
        47         5        4.420425e-01
        48         5        2.374383e-01
        49         5       -1.562023e-01
        50         5        1.098801e+00
        51         5       -1.014735e+00
        52         5       -1.294139e+00
        53         5       -7.504466e-02
        54         5        4.379381e-01
        55         5       -3.137590e-01
        56         5        6.119913e-01
        57         5       -6.671292e-01
        58         5        6.578600e-01
        59         5       -5.567398e-03
        60         5       -4.841521e-01
        61         5       -5.316076e-01
        62         5       -6.751292e-01
        63         5       -2.197369e-01
        64         5       -1.732360e+00
        65         5        2.213072e-01
        66         5       -1.062220e+00
        67         5       -1.160721e+00
        68         5       -1.259437e+00
        69         5        5.985749e-01
        70         5       -3.019605e-02
        71         5       -4.936710e-01
        72         5       -1.224029e+00
        73         5        1.174754e+00
        74         5       -6.068696e-01
        75         5        1.304079e+00
        76         5       -2.547204e-01
        77         5       -8.983509e-01
        78         5        8.467700e-01
        79         5       -2.204570e-02
        80         5       -2.325825e+00
        81         5       -1.209669e+00
        82         5        1.040498e-01
        83         5        1.036362e+00
        84         5        2.654609e+00
        85         5        9.151524e-01
        86         5       -6.469438e-01
        87         5       -7.714818e-01
        88         5       -4.091361e-01
        89         5       -6.481943e-01
        90         5        2.378572e+00
        91         5       -1.332363e+00
        92         5        2.291249e+00
        93         5       -1.320699e+00
        94         5       -4.705224e-01
        95         5       -1.427335e+00
        96         5       -1.509884e+00
        97         5       -8.290145e-03
        98         5       -1.191078e+00
        99         5       -4.717442e-01
       100         5       -3.361755e+00
;

param theta:=
    1        1.560796e+00
    2        4.528187e-01
    3       -1.223080e+00
    4       -7.108984e-01
    5        5.086273e-01
;
param X_true:=
    1        6.486421e-01
    2       -4.340275e+00
    3        1.162647e+00
    4       -1.050751e+00
    5       -8.316841e-03
    6       -3.365061e+00
    7       -3.360098e+00
    8        1.532570e+00
    9        3.022127e+00
   10        4.261952e+00
   11       -1.969168e+00
   12        2.205057e+00
   13        3.130045e-01
   14       -2.628999e+00
   15        1.563623e+00
   16       -1.506290e+00
   17       -1.001748e-01
   18       -3.615438e+00
   19        2.529389e+00
   20        1.953812e+00
   21        2.804071e+00
   22        1.634178e+00
   23       -8.234132e-01
   24        3.061045e+00
   25       -1.356168e-01
   26        2.822138e-01
   27       -1.323065e-02
   28        7.800505e-01
   29        5.127085e-01
   30        4.520392e+00
   31        1.576565e+00
   32       -1.288134e+00
   33        2.107457e+00
   34        2.226583e+00
   35       -1.548415e+00
   36        1.250220e+00
   37        6.058481e-01
   38       -1.089980e+00
   39        2.321414e-01
   40        1.514029e+00
   41        3.660420e-01
   42        1.410578e+00
   43        1.403335e+00
   44       -3.524719e+00
   45        1.365667e+00
   46       -8.194962e-02
   47       -1.695777e+00
   48       -1.829054e+00
   49       -1.840850e+00
   50        3.326420e+00
   51       -4.847103e+00
   52       -1.138006e+00
   53        2.657476e+00
   54        1.084699e+00
   55       -2.888776e-01
   56       -2.847392e+00
   57       -4.557743e+00
   58        1.404423e+00
   59        2.178408e+00
   60        1.678904e+00
   61        2.548032e+00
   62        2.063491e+00
   63       -1.356676e+00
   64       -1.712755e+00
   65        2.534510e+00
   66        2.146358e+00
   67        7.065325e-01
   68       -2.639979e+00
   69        1.154452e+00
   70        3.910324e+00
   71       -1.071218e-01
   72       -1.104871e+00
   73        2.595086e+00
   74        2.389693e+00
   75       -1.052223e-02
   76        3.784838e-01
   77       -1.147166e+00
   78       -3.359729e-01
   79        1.871630e-01
   80       -1.915833e+00
   81        3.286075e+00
   82       -1.723981e+00
   83        4.507125e-01
   84       -1.272249e+00
   85       -4.166787e-01
   86       -5.137011e+00
   87        7.878477e-01
   88       -1.336131e+00
   89       -2.273167e-01
   90        1.443812e+00
   91       -1.747068e+00
   92       -3.615519e+00
   93       -5.000875e+00
   94       -3.298109e+00
   95        2.367670e+00
   96        2.483946e+00
   97       -4.259069e+00
   98       -3.615321e-01
   99        2.801112e+00
  100       -2.695339e+00
;
param X:=
    1        6.486421e-01
    2       -4.340275e+00
    3        1.162647e+00
    4       -1.050751e+00
    5       -8.316841e-03
    6        1.276026e+00
    7       -3.360098e+00
    8        1.532570e+00
    9        3.022127e+00
   10        4.261952e+00
   11       -1.969168e+00
   12       -8.094411e-01
   13        3.130045e-01
   14       -2.628999e+00
   15        1.563623e+00
   16       -1.506290e+00
   17       -1.001748e-01
   18       -3.615438e+00
   19        2.529389e+00
   20        1.953812e+00
   21        2.804071e+00
   22        1.634178e+00
   23       -8.234132e-01
   24        3.061045e+00
   25       -1.356168e-01
   26        2.822138e-01
   27       -1.323065e-02
   28        7.800505e-01
   29        5.127085e-01
   30        4.520392e+00
   31        6.307628e-01
   32        1.079561e+00
   33        2.107457e+00
   34        2.226583e+00
   35        7.120341e-01
   36        1.250220e+00
   37        6.058481e-01
   38       -1.089980e+00
   39        2.321414e-01
   40        1.514029e+00
   41        3.660420e-01
   42        1.410578e+00
   43        1.403335e+00
   44        1.352547e+00
   45        3.174706e-01
   46       -8.194962e-02
   47       -1.695777e+00
   48       -1.829054e+00
   49       -1.840850e+00
   50        3.326420e+00
   51       -4.847103e+00
   52       -1.219318e+00
   53        2.657476e+00
   54        1.084699e+00
   55       -2.888776e-01
   56       -2.847392e+00
   57       -4.557743e+00
   58        8.955503e-01
   59        2.178408e+00
   60        1.678904e+00
   61        2.548032e+00
   62        2.063491e+00
   63       -1.356676e+00
   64        1.837242e+00
   65        2.534510e+00
   66        2.146358e+00
   67        7.065325e-01
   68       -2.639979e+00
   69        1.154452e+00
   70        3.910324e+00
   71       -1.071218e-01
   72       -1.104871e+00
   73        2.595086e+00
   74        1.723741e+00
   75       -1.052223e-02
   76       -8.427377e-01
   77       -8.474161e-01
   78       -3.359729e-01
   79        1.305341e-01
   80       -1.915833e+00
   81       -5.801627e-01
   82       -1.723981e+00
   83        4.507125e-01
   84        3.746787e-01
   85       -4.166787e-01
   86       -5.137011e+00
   87        7.878477e-01
   88       -1.336131e+00
   89       -1.678115e-01
   90        1.443812e+00
   91       -1.747068e+00
   92       -3.615519e+00
   93       -7.115464e-01
   94       -3.298109e+00
   95        2.367670e+00
   96        2.483946e+00
   97       -4.259069e+00
   98       -3.283157e-01
   99        2.801112e+00
  100       -2.547559e-01
;
param outliervec:=
    1    0
    2    0
    3    0
    4    0
    5    0
    6    1
    7    0
    8    0
    9    0
   10    0
   11    0
   12    1
   13    0
   14    0
   15    0
   16    0
   17    0
   18    0
   19    0
   20    0
   21    0
   22    0
   23    0
   24    0
   25    0
   26    0
   27    0
   28    0
   29    0
   30    0
   31    1
   32    1
   33    0
   34    0
   35    1
   36    0
   37    0
   38    0
   39    0
   40    0
   41    0
   42    0
   43    0
   44    1
   45    1
   46    0
   47    0
   48    0
   49    0
   50    0
   51    0
   52    1
   53    0
   54    0
   55    0
   56    0
   57    0
   58    1
   59    0
   60    0
   61    0
   62    0
   63    0
   64    1
   65    0
   66    0
   67    0
   68    0
   69    0
   70    0
   71    0
   72    0
   73    0
   74    1
   75    0
   76    1
   77    1
   78    0
   79    1
   80    0
   81    1
   82    0
   83    0
   84    1
   85    0
   86    0
   87    0
   88    0
   89    1
   90    0
   91    0
   92    0
   93    1
   94    0
   95    0
   96    0
   97    0
   98    1
   99    0
  100    1
;